Name:		mgval_0.40_6A
Optimal value:	224
#Vehicles:	3
Capacity:	170
Depot Node:	1
#Nodes:		31
#Edges:		22
#Arcs:		47
#Required N:	20
#Required E:	13
#Required A:	28

ReN.	DEMAND	S. COST
N2	16	16
N3	11	11
N4	1	1
N6	4	4
N7	13	13
N10	10	10
N14	2	2
N15	4	4
N16	8	8
N17	15	15
N18	13	13
N19	12	12
N21	14	14
N23	7	7
N24	5	5
N27	7	7
N28	4	4
N29	9	9
N30	17	17
N31	2	2

ReE.	FROM N.	TO N.	T. COST	DEMAND	S. COST
E10	19	21	3	8	8
E11	19	22	2	9	9
E12	10	16	2	8	8
E13	6	7	3	9	9
E14	25	28	5	12	12
E15	6	31	3	9	9
E16	13	19	6	14	14
E17	14	15	5	7	7
E18	9	13	6	9	9
E19	8	9	7	12	12
E20	5	31	1	4	4
E21	23	26	2	6	6
E22	23	24	3	10	10

EDGE	FROM N.	TO N.	T. COST
NrE1	1	30	4
NrE2	19	20	4
NrE3	1	7	10
NrE4	23	25	3
NrE5	24	27	2
NrE6	21	22	4
NrE7	3	9	2
NrE8	29	31	2
NrE9	18	21	3

ReA.	FROM N.	TO N.	T. COST	DEMAND	S. COST
A20	26	28	5	6	6
A21	12	11	5	5	5
A22	20	22	5	5	5
A23	10	5	4	5	5
A24	4	3	5	6	6
A25	7	8	3	7	7
A26	10	14	1	2	2
A27	5	6	3	4	4
A28	6	11	2	6	6
A29	11	6	2	6	6
A30	12	18	5	6	6
A31	31	1	3	2	2
A32	13	12	4	7	7
A33	5	10	4	5	5
A34	2	1	2	3	3
A35	8	7	3	7	7
A36	31	28	3	4	4
A37	18	19	5	9	9
A38	12	8	8	14	14
A39	2	8	6	7	7
A40	8	2	6	7	7
A41	4	13	3	8	8
A42	9	4	9	2	2
A43	11	12	5	4	4
A44	22	20	5	6	6
A45	28	26	5	7	7
A46	29	30	7	5	5
A47	29	28	3	5	5

ARC	FROM N.	TO N.	T. COST
NrA1	14	10	1
NrA2	15	16	3
NrA3	16	17	2
NrA4	27	26	1
NrA5	29	27	2
NrA6	6	5	3
NrA7	2	3	1
NrA8	1	2	2
NrA9	27	29	2
NrA10	17	16	2
NrA11	16	15	3
NrA12	28	29	3
NrA13	17	11	4
NrA14	3	4	5
NrA15	18	12	5
NrA16	1	31	3
NrA17	10	11	4
NrA18	4	9	9
NrA19	30	29	7
